7
15
5
6 4 3 2 5
5 3 1 3 6
40
10
3 7 1 6 3 6 9 1 6 2
5 6 3 2 8 9 1 4 5 6
1500
7
700 400 300 400 600 500 300
8 8 8 8 8 8 8
7
3
7 6 5
5 6 7
5
1
6
7
20
20
1 2 3 4 5 6 7 8 9 10 11 12 13 14 15 16 17 18 19 20
20 19 18 17 16 15 14 13 12 11 10 9 8 7 6 5 4 3 2 1
13
5
1 5 1 2 10
1 1 5 5 15